19 965
528 7 504 7 413 7 254 9 80 11 923 15 770 20
525 7 479 7 358 7 113 12
525 7 445 7 286 10
525 7 479 7 356 7 109 9 965 11 699 15 550 22
525 7 484 7 368 7 123 9 857 11 634 18
519 7 499 7 409 7 252 9 144 16
525 7 477 7 390 7 241 9 75 14 911 18 756 25
520 7 441 7 261 7 60 9 922 11 761 18
535 8 492 8 398 9 277 10 183 14 57 26 896 50
520 7 476 7 355 7 196 12
525 7 476 7 354 7 155 9 5 11 838 15 650 20 567 28
525 7 482 7 362 7 118 9 856 11 678 18
525 7 479 7 359 7 214 9 32 11 788 18
525 7 479 7 355 7 106 9 931 13
529 7 485 7 342 11
529 7 485 7 342 11
525 7 476 7 354 7 155 9 5 11 838 15 650 20 567 28
525 7 476 7 354 7 155 9 5 11 838 15 650 20 567 28
535 8 492 8 398 9 279 10 184 14 58 26 898 50
